data/evidence/ss_sat/proofs/scaled_cadical_drat/horn_chain_64.cadical.drat
2 0
d -1 2 0
3 0
d -2 3 0
4 0
d -3 4 0
5 0
d -4 5 0
6 0
d -5 6 0
7 0
d -6 7 0
8 0
d -7 8 0
9 0
d -8 9 0
10 0
d -9 10 0
11 0
d -10 11 0
12 0
d -11 12 0
13 0
d -12 13 0
14 0
d -13 14 0
15 0
d -14 15 0
16 0
d -15 16 0
17 0
d -16 17 0
18 0
d -17 18 0
19 0
d -18 19 0
20 0
d -19 20 0
21 0
d -20 21 0
22 0
d -21 22 0
23 0
d -22 23 0
24 0
d -23 24 0
25 0
d -24 25 0
26 0
d -25 26 0
27 0
d -26 27 0
28 0
d -27 28 0
29 0
d -28 29 0
30 0
d -29 30 0
31 0
d -30 31 0
32 0
d -31 32 0
33 0
d -32 33 0
34 0
d -33 34 0
35 0
d -34 35 0
36 0
d -35 36 0
37 0
d -36 37 0
38 0
d -37 38 0
39 0
d -38 39 0
40 0
d -39 40 0
41 0
d -40 41 0
42 0
d -41 42 0
43 0
d -42 43 0
44 0
d -43 44 0
45 0
d -44 45 0
46 0
d -45 46 0
47 0
d -46 47 0
48 0
d -47 48 0
49 0
d -48 49 0
50 0
d -49 50 0
51 0
d -50 51 0
52 0
d -51 52 0
53 0
d -52 53 0
54 0
d -53 54 0
55 0
d -54 55 0
56 0
d -55 56 0
57 0
d -56 57 0
58 0
d -57 58 0
59 0
d -58 59 0
60 0
d -59 60 0
61 0
d -60 61 0
62 0
d -61 62 0
63 0
d -62 63 0
64 0
d -63 64 0
0
d -64 0
