data/evidence/ss_sat/proofs/scaled_cadical_lrat/horn_chain_64.cadical.lrat
66 2 0 1 2 0
66 d 2 0
67 3 0 66 3 0
67 d 3 0
68 4 0 67 4 0
68 d 4 0
69 5 0 68 5 0
69 d 5 0
70 6 0 69 6 0
70 d 6 0
71 7 0 70 7 0
71 d 7 0
72 8 0 71 8 0
72 d 8 0
73 9 0 72 9 0
73 d 9 0
74 10 0 73 10 0
74 d 10 0
75 11 0 74 11 0
75 d 11 0
76 12 0 75 12 0
76 d 12 0
77 13 0 76 13 0
77 d 13 0
78 14 0 77 14 0
78 d 14 0
79 15 0 78 15 0
79 d 15 0
80 16 0 79 16 0
80 d 16 0
81 17 0 80 17 0
81 d 17 0
82 18 0 81 18 0
82 d 18 0
83 19 0 82 19 0
83 d 19 0
84 20 0 83 20 0
84 d 20 0
85 21 0 84 21 0
85 d 21 0
86 22 0 85 22 0
86 d 22 0
87 23 0 86 23 0
87 d 23 0
88 24 0 87 24 0
88 d 24 0
89 25 0 88 25 0
89 d 25 0
90 26 0 89 26 0
90 d 26 0
91 27 0 90 27 0
91 d 27 0
92 28 0 91 28 0
92 d 28 0
93 29 0 92 29 0
93 d 29 0
94 30 0 93 30 0
94 d 30 0
95 31 0 94 31 0
95 d 31 0
96 32 0 95 32 0
96 d 32 0
97 33 0 96 33 0
97 d 33 0
98 34 0 97 34 0
98 d 34 0
99 35 0 98 35 0
99 d 35 0
100 36 0 99 36 0
100 d 36 0
101 37 0 100 37 0
101 d 37 0
102 38 0 101 38 0
102 d 38 0
103 39 0 102 39 0
103 d 39 0
104 40 0 103 40 0
104 d 40 0
105 41 0 104 41 0
105 d 41 0
106 42 0 105 42 0
106 d 42 0
107 43 0 106 43 0
107 d 43 0
108 44 0 107 44 0
108 d 44 0
109 45 0 108 45 0
109 d 45 0
110 46 0 109 46 0
110 d 46 0
111 47 0 110 47 0
111 d 47 0
112 48 0 111 48 0
112 d 48 0
113 49 0 112 49 0
113 d 49 0
114 50 0 113 50 0
114 d 50 0
115 51 0 114 51 0
115 d 51 0
116 52 0 115 52 0
116 d 52 0
117 53 0 116 53 0
117 d 53 0
118 54 0 117 54 0
118 d 54 0
119 55 0 118 55 0
119 d 55 0
120 56 0 119 56 0
120 d 56 0
121 57 0 120 57 0
121 d 57 0
122 58 0 121 58 0
122 d 58 0
123 59 0 122 59 0
123 d 59 0
124 60 0 123 60 0
124 d 60 0
125 61 0 124 61 0
125 d 61 0
126 62 0 125 62 0
126 d 62 0
127 63 0 126 63 0
127 d 63 0
128 64 0 127 64 0
128 d 64 0
129 0 128 65 0
